data/instances/vrp_files/train_58.vrp
NAME : 58
COMMENT : Generated instance No. 58
TYPE : CVRP
DIMENSION : 21
EDGE_WEIGHT_TYPE : EUC_2D
CAPACITY : 30
NODE_COORD_SECTION
 1 249 576
 2 821 659
 3 796 271
 4 692 264
 5 939 636
 6 324 269
 7 190 694
 8 218 595
 9 264 661
 10 814 778
 11 760 187
 12 88 698
 13 368 432
 14 31 259
 15 33 879
 16 243 557
 17 38 666
 18 323 897
 19 888 325
 20 900 996
 21 825 844
DEMAND_SECTION
1 0
2 6
3 4
4 10
5 3
6 3
7 1
8 3
9 4
10 5
11 3
12 6
13 5
14 3
15 6
16 6
17 8
18 2
19 1
20 4
21 7
DEPOT_SECTION
 1
 -1
EOF